SAT
-1 -100 -99 -98 -61 -97 -96 -54 -95 94 10 93 -62 55 40 56 82 -21 -74 -83 33 22 28 -13 -68 -2 60 -75 -91 -73 -53 58 -26 -69 -87 14 -80 63 64 89 19 29 -4 -31 -50 72 -23 -46 36 -41 49 -24 -47 79 -32 -65 45 -76 70 9 -17 67 30 92 11 15 -44 6 -38 81 37 -16 -7 -59 34 -66 90 39 77 48 52 57 20 -8 -25 78 86 84 -85 -5 3 12 -35 -27 -43 -71 88 -18 42 -51 0
